; MLOAD SWAP1 POP POP POP POP => ADDMOD OR POP
(set-option :produce-proofs true)
; 
(set-info :status unknown)
(declare-fun storage_t ((_ BitVec 256) (_ BitVec 256) (_ BitVec 256) (_ BitVec 256) (_ BitVec 256) Int (_ BitVec 256)) (_ BitVec 256))
(declare-fun storage_s ((_ BitVec 256) (_ BitVec 256) (_ BitVec 256) (_ BitVec 256) (_ BitVec 256) Int (_ BitVec 256)) (_ BitVec 256))
(declare-fun exc_halt_t (Int) Bool)
(declare-fun exc_halt_s (Int) Bool)
(declare-fun sc_t (Int) (_ BitVec 6))
(declare-fun stack_t ((_ BitVec 256) (_ BitVec 256) (_ BitVec 256) (_ BitVec 256) (_ BitVec 256) Int (_ BitVec 6)) (_ BitVec 256))
(declare-fun stack_s ((_ BitVec 256) (_ BitVec 256) (_ BitVec 256) (_ BitVec 256) (_ BitVec 256) Int (_ BitVec 6)) (_ BitVec 256))
(declare-fun sc_s (Int) (_ BitVec 6))
(declare-fun used_gas_t ((_ BitVec 256) (_ BitVec 256) (_ BitVec 256) (_ BitVec 256) (_ BitVec 256) Int) Int)
(declare-fun used_gas_s ((_ BitVec 256) (_ BitVec 256) (_ BitVec 256) (_ BitVec 256) (_ BitVec 256) Int) Int)
(declare-fun f_MLOAD ((_ BitVec 256) (_ BitVec 256) (_ BitVec 256) (_ BitVec 256) (_ BitVec 256) (_ BitVec 256)) (_ BitVec 256))
(assert
 (exists ((x_0 (_ BitVec 256)) (x_1 (_ BitVec 256)) (x_2 (_ BitVec 256)) (x_3 (_ BitVec 256)) (x_MLOAD_0 (_ BitVec 256)) )(let (($x1579 (forall ((w (_ BitVec 256)) )(let ((?x2994 (storage_t x_0 x_1 x_2 x_3 x_MLOAD_0 3 w)))
 (let ((?x5494 (storage_s x_0 x_1 x_2 x_3 x_MLOAD_0 6 w)))
 (= ?x5494 ?x2994))))
 ))
 (let (($x6783 (exc_halt_t 3)))
 (let (($x772 (exc_halt_s 6)))
 (let (($x9151 (= $x772 $x6783)))
 (let (($x11016 (forall ((n (_ BitVec 6)) )(let ((?x173 (stack_t x_0 x_1 x_2 x_3 x_MLOAD_0 3 n)))
 (let ((?x9723 (stack_s x_0 x_1 x_2 x_3 x_MLOAD_0 6 n)))
 (let (($x6578 (= ?x9723 ?x173)))
 (or $x6578 (bvsle (sc_t 3) n))))))
 ))
 (let ((?x6438 (sc_t 3)))
 (let ((?x926 (sc_s 6)))
 (let (($x933 (= ?x926 ?x6438)))
 (let ((?x9365 (used_gas_t x_0 x_1 x_2 x_3 x_MLOAD_0 0)))
 (let ((?x9184 (used_gas_s x_0 x_1 x_2 x_3 x_MLOAD_0 0)))
 (let (($x11132 (= ?x9184 ?x9365)))
 (let (($x10711 (forall ((w (_ BitVec 256)) )(let ((?x5387 (storage_t x_0 x_1 x_2 x_3 x_MLOAD_0 0 w)))
 (let ((?x2783 (storage_s x_0 x_1 x_2 x_3 x_MLOAD_0 0 w)))
 (= ?x2783 ?x5387))))
 ))
 (let (($x56 (exc_halt_t 0)))
 (let (($x57 (exc_halt_s 0)))
 (let (($x58 (= $x57 $x56)))
 (let (($x2933 (forall ((n (_ BitVec 6)) )(let ((?x8999 (stack_t x_0 x_1 x_2 x_3 x_MLOAD_0 0 n)))
 (let ((?x3220 (stack_s x_0 x_1 x_2 x_3 x_MLOAD_0 0 n)))
 (let (($x8311 (= ?x3220 ?x8999)))
 (let ((?x63 (sc_t 0)))
 (let (($x4790 (bvsle ?x63 n)))
 (or $x4790 $x8311)))))))
 ))
 (let ((?x63 (sc_t 0)))
 (let ((?x72 (sc_s 0)))
 (let (($x73 (= ?x72 ?x63)))
 (let (($x6158 (= $x6783 (or (exc_halt_t 2) (not (bvsle (_ bv0 6) (bvadd (_ bv63 6) (sc_t 2))))))))
 (let (($x9466 (forall ((w (_ BitVec 256)) )(let ((?x6525 (storage_t x_0 x_1 x_2 x_3 x_MLOAD_0 2 w)))
 (let ((?x2994 (storage_t x_0 x_1 x_2 x_3 x_MLOAD_0 3 w)))
 (= ?x2994 ?x6525))))
 ))
 (let (($x1886 (forall ((n (_ BitVec 6)) )(let ((?x2714 (sc_t 2)))
 (let ((?x4833 (bvadd (_ bv63 6) ?x2714)))
 (let (($x8470 (bvsle ?x4833 n)))
 (let ((?x9199 (stack_t x_0 x_1 x_2 x_3 x_MLOAD_0 2 n)))
 (let ((?x173 (stack_t x_0 x_1 x_2 x_3 x_MLOAD_0 3 n)))
 (or (= ?x173 ?x9199) $x8470)))))))
 ))
 (let (($x5678 (= (used_gas_t x_0 x_1 x_2 x_3 x_MLOAD_0 3) (+ 2 (used_gas_t x_0 x_1 x_2 x_3 x_MLOAD_0 2)))))
 (let (($x2163 (exc_halt_t 2)))
 (let (($x8722 (= $x2163 (or (exc_halt_t 1) (not (bvsle (_ bv0 6) (bvadd (_ bv62 6) (sc_t 1))))))))
 (let (($x11733 (forall ((w (_ BitVec 256)) )(let ((?x9828 (storage_t x_0 x_1 x_2 x_3 x_MLOAD_0 1 w)))
 (let ((?x6525 (storage_t x_0 x_1 x_2 x_3 x_MLOAD_0 2 w)))
 (= ?x6525 ?x9828))))
 ))
 (let (($x9572 (forall ((n (_ BitVec 6)) )(let ((?x2592 (stack_t x_0 x_1 x_2 x_3 x_MLOAD_0 1 n)))
 (let ((?x9199 (stack_t x_0 x_1 x_2 x_3 x_MLOAD_0 2 n)))
 (or (= ?x9199 ?x2592) (bvsle (bvadd (_ bv62 6) (sc_t 1)) n)))))
 ))
 (let ((?x5590 (used_gas_t x_0 x_1 x_2 x_3 x_MLOAD_0 2)))
 (let ((?x8347 (sc_t 1)))
 (let ((?x9514 (bvadd (_ bv63 6) ?x8347)))
 (let ((?x4257 (stack_t x_0 x_1 x_2 x_3 x_MLOAD_0 1 ?x9514)))
 (let ((?x1056 (bvor ?x4257 (stack_t x_0 x_1 x_2 x_3 x_MLOAD_0 1 (bvadd (_ bv62 6) ?x8347)))))
 (let (($x8153 (= (stack_t x_0 x_1 x_2 x_3 x_MLOAD_0 2 (bvadd (_ bv63 6) (sc_t 2))) ?x1056)))
 (let (($x4613 (forall ((w (_ BitVec 256)) )(let ((?x5387 (storage_t x_0 x_1 x_2 x_3 x_MLOAD_0 0 w)))
 (let ((?x9828 (storage_t x_0 x_1 x_2 x_3 x_MLOAD_0 1 w)))
 (= ?x9828 ?x5387))))
 ))
 (let (($x9207 (forall ((n (_ BitVec 6)) )(let ((?x8999 (stack_t x_0 x_1 x_2 x_3 x_MLOAD_0 0 n)))
 (let ((?x2592 (stack_t x_0 x_1 x_2 x_3 x_MLOAD_0 1 n)))
 (or (bvsle (bvadd (_ bv61 6) (sc_t 0)) n) (= ?x2592 ?x8999)))))
 ))
 (let ((?x10032 (bvadd (_ bv61 6) ?x63)))
 (let ((?x790 (stack_t x_0 x_1 x_2 x_3 x_MLOAD_0 0 ?x10032)))
 (let ((?x1269 (concat (_ bv0 1) (stack_t x_0 x_1 x_2 x_3 x_MLOAD_0 0 (bvadd (_ bv62 6) ?x63)))))
 (let ((?x6974 (concat (_ bv0 1) (stack_t x_0 x_1 x_2 x_3 x_MLOAD_0 0 (bvadd (_ bv63 6) ?x63)))))
 (let ((?x787 (ite (= ?x790 (_ bv0 256)) (_ bv0 256) ((_ extract 255 0) (bvurem_i (bvadd ?x6974 ?x1269) (concat (_ bv0 1) ?x790))))))
 (let (($x2342 (= $x772 (or (exc_halt_s 5) (not (bvsle (_ bv0 6) (bvadd (_ bv63 6) (sc_s 5))))))))
 (let (($x8393 (forall ((w (_ BitVec 256)) )(let ((?x9597 (storage_s x_0 x_1 x_2 x_3 x_MLOAD_0 5 w)))
 (let ((?x5494 (storage_s x_0 x_1 x_2 x_3 x_MLOAD_0 6 w)))
 (= ?x5494 ?x9597))))
 ))
 (let (($x3833 (forall ((n (_ BitVec 6)) )(let ((?x9447 (stack_s x_0 x_1 x_2 x_3 x_MLOAD_0 5 n)))
 (let ((?x9723 (stack_s x_0 x_1 x_2 x_3 x_MLOAD_0 6 n)))
 (or (= ?x9723 ?x9447) (bvsle (bvadd (_ bv63 6) (sc_s 5)) n)))))
 ))
 (let (($x3038 (= (used_gas_s x_0 x_1 x_2 x_3 x_MLOAD_0 6) (+ 2 (used_gas_s x_0 x_1 x_2 x_3 x_MLOAD_0 5)))))
 (let (($x11317 (exc_halt_s 5)))
 (let (($x8344 (= $x11317 (or (exc_halt_s 4) (not (bvsle (_ bv0 6) (bvadd (_ bv63 6) (sc_s 4))))))))
 (let (($x1940 (forall ((w (_ BitVec 256)) )(let ((?x7020 (storage_s x_0 x_1 x_2 x_3 x_MLOAD_0 4 w)))
 (let ((?x9597 (storage_s x_0 x_1 x_2 x_3 x_MLOAD_0 5 w)))
 (= ?x9597 ?x7020))))
 ))
 (let (($x8613 (forall ((n (_ BitVec 6)) )(let ((?x2362 (stack_s x_0 x_1 x_2 x_3 x_MLOAD_0 4 n)))
 (let ((?x9447 (stack_s x_0 x_1 x_2 x_3 x_MLOAD_0 5 n)))
 (let ((?x4305 (sc_s 4)))
 (let ((?x10159 (bvadd (_ bv63 6) ?x4305)))
 (let (($x9608 (bvsle ?x10159 n)))
 (or $x9608 (= ?x9447 ?x2362))))))))
 ))
 (let ((?x4305 (sc_s 4)))
 (let ((?x10159 (bvadd (_ bv63 6) ?x4305)))
 (let ((?x4319 (sc_s 5)))
 (let (($x129 (= ?x4319 ?x10159)))
 (let ((?x9212 (used_gas_s x_0 x_1 x_2 x_3 x_MLOAD_0 5)))
 (let (($x7172 (exc_halt_s 4)))
 (let (($x4704 (= $x7172 (or (exc_halt_s 3) (not (bvsle (_ bv0 6) (bvadd (_ bv63 6) (sc_s 3))))))))
 (let (($x6859 (forall ((w (_ BitVec 256)) )(let ((?x983 (storage_s x_0 x_1 x_2 x_3 x_MLOAD_0 3 w)))
 (let ((?x7020 (storage_s x_0 x_1 x_2 x_3 x_MLOAD_0 4 w)))
 (= ?x7020 ?x983))))
 ))
 (let (($x3298 (forall ((n (_ BitVec 6)) )(let ((?x275 (sc_s 3)))
 (let ((?x9670 (bvadd (_ bv63 6) ?x275)))
 (let (($x4102 (bvsle ?x9670 n)))
 (let ((?x7302 (stack_s x_0 x_1 x_2 x_3 x_MLOAD_0 3 n)))
 (let ((?x2362 (stack_s x_0 x_1 x_2 x_3 x_MLOAD_0 4 n)))
 (or (= ?x2362 ?x7302) $x4102)))))))
 ))
 (let ((?x275 (sc_s 3)))
 (let ((?x9670 (bvadd (_ bv63 6) ?x275)))
 (let (($x5727 (= ?x4305 ?x9670)))
 (let ((?x11698 (used_gas_s x_0 x_1 x_2 x_3 x_MLOAD_0 4)))
 (let (($x292 (exc_halt_s 3)))
 (let (($x2995 (= $x292 (or (exc_halt_s 2) (not (bvsle (_ bv0 6) (bvadd (_ bv63 6) (sc_s 2))))))))
 (let (($x10259 (forall ((w (_ BitVec 256)) )(let ((?x6393 (storage_s x_0 x_1 x_2 x_3 x_MLOAD_0 2 w)))
 (let ((?x983 (storage_s x_0 x_1 x_2 x_3 x_MLOAD_0 3 w)))
 (= ?x983 ?x6393))))
 ))
 (let (($x3056 (forall ((n (_ BitVec 6)) )(let ((?x11682 (stack_s x_0 x_1 x_2 x_3 x_MLOAD_0 2 n)))
 (let ((?x7302 (stack_s x_0 x_1 x_2 x_3 x_MLOAD_0 3 n)))
 (let ((?x218 (sc_s 2)))
 (let ((?x7280 (bvadd (_ bv63 6) ?x218)))
 (let (($x1255 (bvsle ?x7280 n)))
 (or $x1255 (= ?x7302 ?x11682))))))))
 ))
 (let ((?x218 (sc_s 2)))
 (let ((?x7280 (bvadd (_ bv63 6) ?x218)))
 (let (($x8436 (= ?x275 ?x7280)))
 (let ((?x7040 (used_gas_s x_0 x_1 x_2 x_3 x_MLOAD_0 3)))
 (let (($x247 (exc_halt_s 2)))
 (let (($x8330 (= $x247 (or (exc_halt_s 1) (not (bvsle (_ bv0 6) (bvadd (_ bv62 6) (sc_s 1))))))))
 (let (($x2231 (forall ((w (_ BitVec 256)) )(let ((?x9672 (storage_s x_0 x_1 x_2 x_3 x_MLOAD_0 1 w)))
 (let ((?x6393 (storage_s x_0 x_1 x_2 x_3 x_MLOAD_0 2 w)))
 (= ?x6393 ?x9672))))
 ))
 (let (($x9689 (forall ((n (_ BitVec 6)) )(let ((?x8034 (stack_s x_0 x_1 x_2 x_3 x_MLOAD_0 1 n)))
 (let ((?x11682 (stack_s x_0 x_1 x_2 x_3 x_MLOAD_0 2 n)))
 (let ((?x154 (sc_s 1)))
 (let ((?x945 (bvadd (_ bv62 6) ?x154)))
 (let (($x7118 (bvsle ?x945 n)))
 (or $x7118 (= ?x11682 ?x8034))))))))
 ))
 (let ((?x154 (sc_s 1)))
 (let (($x1181 (= ?x218 ?x154)))
 (let ((?x5908 (used_gas_s x_0 x_1 x_2 x_3 x_MLOAD_0 2)))
 (let ((?x634 (bvadd (_ bv63 6) ?x154)))
 (let ((?x1920 (stack_s x_0 x_1 x_2 x_3 x_MLOAD_0 1 ?x634)))
 (let (($x738 (= (stack_s x_0 x_1 x_2 x_3 x_MLOAD_0 2 ?x7280) (stack_s x_0 x_1 x_2 x_3 x_MLOAD_0 1 (bvadd (_ bv62 6) ?x154)))))
 (let (($x11525 (forall ((w (_ BitVec 256)) )(let ((?x2783 (storage_s x_0 x_1 x_2 x_3 x_MLOAD_0 0 w)))
 (let ((?x9672 (storage_s x_0 x_1 x_2 x_3 x_MLOAD_0 1 w)))
 (= ?x9672 ?x2783))))
 ))
 (let (($x5745 (forall ((n (_ BitVec 6)) )(let ((?x3220 (stack_s x_0 x_1 x_2 x_3 x_MLOAD_0 0 n)))
 (let ((?x8034 (stack_s x_0 x_1 x_2 x_3 x_MLOAD_0 1 n)))
 (or (= ?x8034 ?x3220) (bvsle (bvadd (_ bv63 6) (sc_s 0)) n)))))
 ))
 (let ((?x5776 (f_MLOAD x_0 x_1 x_2 x_3 x_MLOAD_0 (stack_s x_0 x_1 x_2 x_3 x_MLOAD_0 0 (bvadd (_ bv63 6) ?x72)))))
 (let (($x6644 (forall ((w0 (_ BitVec 256)) )(let (($x7820 (= (stack_s x_0 x_1 x_2 x_3 x_MLOAD_0 0 (bvadd (_ bv63 6) (sc_s 0))) w0)))
 (let ((?x3195 (f_MLOAD x_0 x_1 x_2 x_3 x_MLOAD_0 w0)))
 (= ?x3195 (ite $x7820 x_MLOAD_0 (_ bv0 256))))))
 ))
 (let (($x9314 (forall ((w (_ BitVec 256)) )(let ((?x2783 (storage_s x_0 x_1 x_2 x_3 x_MLOAD_0 0 w)))
 (= ?x2783 (_ bv0 256))))
 ))
 (let (($x1749 (= ?x9184 0)))
 (let (($x11450 (not $x57)))
 (let (($x9246 (= (stack_s x_0 x_1 x_2 x_3 x_MLOAD_0 0 (_ bv3 6)) x_3)))
 (let (($x1472 (= (stack_s x_0 x_1 x_2 x_3 x_MLOAD_0 0 (_ bv2 6)) x_2)))
 (let (($x4274 (= (stack_s x_0 x_1 x_2 x_3 x_MLOAD_0 0 (_ bv1 6)) x_1)))
 (let (($x10799 (= (stack_s x_0 x_1 x_2 x_3 x_MLOAD_0 0 (_ bv0 6)) x_0)))
 (let (($x289 (= ?x72 (_ bv4 6))))
 (and $x289 $x10799 $x4274 $x1472 $x9246 $x11450 $x1749 $x9314 $x6644 (= ?x1920 ?x5776) (= (used_gas_s x_0 x_1 x_2 x_3 x_MLOAD_0 1) (+ 3 ?x9184)) (= ?x154 ?x72) $x5745 $x11525 (= (exc_halt_s 1) (or $x57 (not (bvsle (_ bv0 6) (bvadd (_ bv63 6) ?x72))))) $x738 (= (stack_s x_0 x_1 x_2 x_3 x_MLOAD_0 2 (bvadd (_ bv62 6) ?x218)) ?x1920) (= ?x5908 (+ 3 (used_gas_s x_0 x_1 x_2 x_3 x_MLOAD_0 1))) $x1181 $x9689 $x2231 $x8330 (= ?x7040 (+ 2 ?x5908)) $x8436 $x3056 $x10259 $x2995 (= ?x11698 (+ 2 ?x7040)) $x5727 $x3298 $x6859 $x4704 (= ?x9212 (+ 2 ?x11698)) $x129 $x8613 $x1940 $x8344 $x3038 (= ?x926 (bvadd (_ bv63 6) ?x4319)) $x3833 $x8393 $x2342 (= ?x4257 ?x787) (= (used_gas_t x_0 x_1 x_2 x_3 x_MLOAD_0 1) (+ 8 ?x9365)) (= ?x8347 (bvadd (_ bv62 6) ?x63)) $x9207 $x4613 (= (exc_halt_t 1) (or $x56 (not (bvsle (_ bv0 6) ?x10032)))) $x8153 (= ?x5590 (+ 3 (used_gas_t x_0 x_1 x_2 x_3 x_MLOAD_0 1))) (= (sc_t 2) ?x9514) $x9572 $x11733 $x8722 $x5678 (= ?x6438 (bvadd (_ bv63 6) (sc_t 2))) $x1886 $x9466 $x6158 $x73 $x2933 $x58 $x10711 $x11132 (not (and $x933 $x11016 $x9151 $x1579)))))))))))))))))))))))))))))))))))))))))))))))))))))))))))))))))))))))))))))))))))))))))))))))
 )
(check-sat)
(get-proof)
